
******************************************************************************
This program contains Ipopt, a library for large-scale nonlinear optimization.
 Ipopt is released as open source code under the Eclipse Public License (EPL).
         For more information visit http://projects.coin-or.org/Ipopt
******************************************************************************

This is Ipopt version 3.12.6, running with linear solver ma57.

Number of nonzeros in equality constraint Jacobian...:      825
Number of nonzeros in inequality constraint Jacobian.:        0
Number of nonzeros in Lagrangian Hessian.............:      436

Total number of variables............................:       51
                     variables with only lower bounds:        0
                variables with lower and upper bounds:        0
                     variables with only upper bounds:        0
Total number of equality constraints.................:       40
Total number of inequality constraints...............:        0
        inequality constraints with only lower bounds:        0
   inequality constraints with lower and upper bounds:        0
        inequality constraints with only upper bounds:        0

iter    objective    inf_pr   inf_du lg(mu)  ||d||  lg(rg) alpha_du alpha_pr  ls
   0  0.0000000e+00 9.00e+00 0.00e+00  -1.0 0.00e+00    -  0.00e+00 0.00e+00   0
Reallocating memory for MA57: lfact (6787)
   1  0.0000000e+00 6.74e-11 3.80e-02  -1.0 3.00e+00  -2.0 1.00e+00 1.00e+00h  1
   2  0.0000000e+00 6.11e-16 8.20e-12  -2.5 5.66e-10  -2.5 1.00e+00 1.00e+00h  1

Number of Iterations....: 2

                                   (scaled)                 (unscaled)
Objective...............:   0.0000000000000000e+00    0.0000000000000000e+00
Dual infeasibility......:   8.2040624173538606e-12    8.2040624173538606e-12
Constraint violation....:   6.1103766324147619e-16    6.1103766324147619e-16
Complementarity.........:   0.0000000000000000e+00    0.0000000000000000e+00
Overall NLP error.......:   8.2040624173538606e-12    8.2040624173538606e-12


Number of objective function evaluations             = 3
Number of objective gradient evaluations             = 3
Number of equality constraint evaluations            = 3
Number of inequality constraint evaluations          = 0
Number of equality constraint Jacobian evaluations   = 3
Number of inequality constraint Jacobian evaluations = 0
Number of Lagrangian Hessian evaluations             = 2
Total CPU secs in IPOPT (w/o function evaluations)   =      0.003
Total CPU secs in NLP function evaluations           =      0.000

EXIT: Optimal Solution Found.

************************ CUTEst statistics ************************


 Package used            :  IPOPT
 Problem                 :  DECONVNE  
 # variables             =              63
 # constraints           =              40
 # objective functions   =        0.7000000E+01
 # objective gradients   =        0.4000000E+01
 # objective Hessians    =        0.3000000E+01
 # Hessian-vector prdct  =        0.0000000E+00
 # constraints functions =        0.8000000E+01
 # constraints gradients =        0.5000000E+01
 # constraints Hessians  =        0.3000000E+01
 Exit code               =               0
 Final f                 =   0.0000000E+00
 Set up time             =            0.00 seconds
 Solve time              =            0.02 seconds


******************************************************************

System Time =       0.0040000002 s.
